; benchmark generated from python API
(set-info :status unknown)
(declare-datatypes ((RealState 0)) (((RMk1 (rval1 Real)) (RMk2 (rval2 Real)))))
 (assert
 (forall ((|v9:0| Real) )(exists ((|v8:1_st| RealState) (val!775 Real) )(forall ((|v7:2| Real) )(exists ((|v6:3_st| RealState) (val!776 Real) )(forall ((|v5:4| Real) )(exists ((|v4:5_st| RealState) (val!777 Real) )(forall ((|v3:6| Real) )(exists ((|v2:7_st| RealState) (val!778 Real) )(forall ((|v1:8| Real) )(exists ((|v0:9_st| RealState) (val!779 Real) )(let (($x1309 (<= (+ (+ (* 4.0 (rval2 |v8:1_st|)) (* (- 3.0) |v7:2|)) (* 0.0 |v3:6|)) 1.0)))
 (let (($x774 (<= (+ (+ (* 12.0 |v7:2|) (* (- 4.0) |v7:2|)) (* 10.0 (rval2 |v2:7_st|))) 2.0)))
 (let ((?x349 (+ (+ (* 19.0 (rval2 |v0:9_st|)) (* (- 8.0) |v1:8|)) (* (- 20.0) (rval2 |v6:3_st|)))))
 (let ((?x1163 (- 5.0)))
 (let ((?x930 (+ (+ (* (- 13.0) |v7:2|) (* 14.0 (rval2 |v4:5_st|))) (* (- 6.0) |v9:0|))))
 (let ((?x1182 (+ (+ (* 16.0 |v3:6|) (* (- 1.0) |v1:8|)) (* (- 4.0) (rval2 |v6:3_st|)))))
 (let ((?x1378 (- 11.0)))
 (let (($x445 (<= (+ (+ (* 11.0 |v7:2|) (* (- 1.0) |v7:2|)) (* (- 17.0) |v7:2|)) ?x1378)))
 (let (($x65 (and (<= (+ (+ (* 18.0 |v7:2|) (* 11.0 |v5:4|)) (* 18.0 |v7:2|)) 8.0) $x445)))
 (let (($x1043 (or (or $x65 (and (<= ?x1182 9.0) (<= ?x930 ?x1163))) (and (<= ?x349 18.0) (or $x774 $x1309)))))
 (let ((?x1094 (- 16.0)))
 (let ((?x26 (rval2 |v8:1_st|)))
 (let ((?x707 (* 3.0 ?x26)))
 (let ((?x1237 (+ (+ (* (- 18.0) |v9:0|) (* (- 15.0) (rval2 |v2:7_st|))) (* 5.0 (rval2 |v4:5_st|)))))
 (let (($x692 (and (<= ?x1237 4.0) (<= (+ (+ (* 14.0 (rval2 |v2:7_st|)) (* (- 10.0) |v3:6|)) ?x707) ?x1094))))
 (let (($x1337 (<= (+ (+ (* ?x1163 |v3:6|) (* 7.0 (rval2 |v4:5_st|))) (* (- 18.0) ?x26)) 7.0)))
 (let ((?x792 (rval2 |v4:5_st|)))
 (let ((?x870 (* 8.0 ?x792)))
 (let (($x79 (<= (+ (+ (* (- 13.0) (rval2 |v2:7_st|)) (* 18.0 |v9:0|)) ?x870) 2.0)))
 (let (($x1031 (<= (+ (+ (* (- 7.0) |v9:0|) (* (- 7.0) (rval2 |v6:3_st|))) ?x870) 2.0)))
 (let ((?x1060 (- 2.0)))
 (let ((?x864 (+ (+ (* (- 14.0) |v7:2|) (* (- 4.0) |v1:8|)) (* 10.0 (rval2 |v0:9_st|)))))
 (let (($x624 (or (<= ?x864 ?x1163) (<= (+ (+ (* 7.0 |v5:4|) (* 11.0 |v9:0|)) (* ?x1163 |v1:8|)) ?x1060))))
 (let ((?x319 (- 17.0)))
 (let (($x973 (<= (+ (+ (* 5.0 (rval2 |v0:9_st|)) (* 10.0 ?x26)) (* 8.0 |v3:6|)) ?x319)))
 (let ((?x1376 (rval2 |v6:3_st|)))
 (let ((?x938 (* 7.0 ?x1376)))
 (let (($x431 (and (<= (+ (+ (* 8.0 (rval2 |v0:9_st|)) (* 17.0 |v7:2|)) ?x938) 3.0) $x973)))
 (let (($x600 (<= (+ (+ (* 5.0 |v5:4|) (* ?x1378 |v5:4|)) (* (- 3.0) (rval2 |v2:7_st|))) 5.0)))
 (let (($x991 (and $x600 (<= (+ (+ (* 19.0 |v7:2|) (* 8.0 |v1:8|)) (* 4.0 |v5:4|)) ?x319))))
 (let (($x1351 (<= (+ (+ (* (- 10.0) ?x1376) (* ?x319 ?x26)) (* ?x1060 |v1:8|)) 6.0)))
 (let ((?x444 (- 15.0)))
 (let (($x411 (<= (+ (+ (* ?x1060 ?x26) (* ?x1060 |v7:2|)) (* 20.0 (rval2 |v2:7_st|))) ?x444)))
 (let (($x1216 (<= (+ (+ (* 10.0 ?x792) (* (- 13.0) |v7:2|)) (* 11.0 (rval2 |v2:7_st|))) 2.0)))
 (let (($x915 (<= (+ (+ (* (- 18.0) |v3:6|) (* 20.0 |v3:6|)) (* (- 1.0) |v7:2|)) 16.0)))
 (let ((?x218 (+ (+ (* 4.0 ?x792) (* (- 13.0) (rval2 |v0:9_st|))) (* 12.0 (rval2 |v0:9_st|)))))
 (let (($x994 (<= (+ (+ (* 6.0 |v9:0|) (* (- 8.0) |v7:2|)) (* ?x444 (rval2 |v0:9_st|))) 17.0)))
 (let (($x1123 (or (<= (+ (+ (* 17.0 |v1:8|) (* 3.0 ?x1376)) (* 17.0 ?x1376)) ?x1163) $x994)))
 (let (($x645 (<= (+ (+ (* (- 18.0) |v7:2|) (* 2.0 |v9:0|)) (* ?x1060 ?x26)) ?x444)))
 (let (($x897 (and $x645 (<= (+ (+ (* 17.0 ?x26) (* 20.0 ?x792)) (* 11.0 ?x792)) ?x319))))
 (let (($x90 (or (and (and $x897 $x1123) (or (or (<= ?x218 19.0) $x915) $x1216)) (and (and (and $x411 $x1351) $x991) (and $x431 $x624)))))
 (let (($x945 (not (= |v0:9_st| (RMk1 val!779)))))
 (let (($x729 (not (= |v2:7_st| (RMk1 val!778)))))
 (let (($x655 (not (= |v4:5_st| (RMk1 val!777)))))
 (let (($x501 (not (= |v6:3_st| (RMk1 val!776)))))
 (let (($x699 (not (= |v8:1_st| (RMk1 val!775)))))
 (and $x699 $x501 $x655 $x729 $x945 (and $x90 (or (and $x1031 (and (or $x79 $x1337) $x692)) $x1043))))))))))))))))))))))))))))))))))))))))))))))))))
 )
 )
 )
 )
 )
 )
 )
 )
 )
 )
(check-sat)
